15
1 0 6
2 0 6
2 1 46
4 3 39
5 2 48
5 4 7
6 2 17
6 3 35
6 5 50
7 3 18
7 5 21
8 2 34
8 3 32
8 4 24
8 6 28
9 0 48
9 1 2
9 3 20
9 4 18
9 7 37
9 8 6
10 0 16
10 1 16
10 4 31
10 5 36
10 6 23
10 7 1
10 8 34
11 3 12
11 9 38
11 10 38
12 0 8
12 1 48
12 2 45
12 3 39
12 4 2
12 5 21
12 10 11
12 11 34
13 1 9
13 2 48
13 5 46
13 6 27
13 8 46
13 11 16
14 5 27
14 6 7
14 8 42
14 9 30
14 12 4
14 13 44
